results_rootrelaxation/bin012_060_046.srr.sol
solution status: optimal solution found
objective value:                     3.16989436619718
_var94_                             0.112235915492958 	(obj:1)
_var697_                            0.535211267605633 	(obj:0)
_var717_                            0.380281690140845 	(obj:0)
_var721_                           0.0202464788732394 	(obj:0)
_var722_                            0.195862676056339 	(obj:0)
_var724_                            0.118397887323944 	(obj:0)
_var766_                            0.547535211267606 	(obj:0)
_var768_                            0.241197183098591 	(obj:0)
_var775_                            0.449823943661972 	(obj:0)
_var779_                             0.52112676056338 	(obj:0)
_var797_                            0.121919014084507 	(obj:0)
_var798_                            0.267605633802817 	(obj:0)
_var802_                            0.500880281690141 	(obj:0)
_var813_                            0.378521126760563 	(obj:1)
_var814_                            0.308538732394367 	(obj:1)
_var818_                            0.261443661971831 	(obj:1)
_var828_                           0.0589788732394363 	(obj:1)
_var831_                            0.125880281690142 	(obj:0)
_var836_                            0.579225352112676 	(obj:1)
_var837_                           0.0845070422535204 	(obj:0)
_var841_                             0.17693661971831 	(obj:1)
_var853_                            0.100352112676055 	(obj:0)
_var859_                           0.0391725352112688 	(obj:0)
_var864_                           0.0220070422535211 	(obj:0)
_var865_                            0.112676056338028 	(obj:0)
_var872_                           0.0761443661971835 	(obj:1)
_var873_                            0.112676056338028 	(obj:0)
_var876_                            0.280369718309859 	(obj:0)
_var881_                            0.371919014084507 	(obj:0)
_var885_                           0.0730633802816908 	(obj:0)
_var886_                            0.143926056338028 	(obj:0)
_var892_                            0.013204225352113 	(obj:1)
_var893_                            0.294014084507042 	(obj:0)
_var894_                           0.0149647887323947 	(obj:0)
_var895_                            0.138644366197184 	(obj:0)
_var897_                           0.0303697183098592 	(obj:0)
_var899_                           0.0941901408450708 	(obj:1)
_var901_                            0.253961267605634 	(obj:1)
_var908_                            0.352552816901409 	(obj:0)
_var914_                            0.386883802816901 	(obj:0)
_var917_                             0.11531690140845 	(obj:0)
_var920_                            0.119278169014084 	(obj:0)
_var921_                           0.0264084507042248 	(obj:2)
_var924_                            0.107394366197183 	(obj:0)
_var925_                            0.147887323943662 	(obj:1)
_var927_                            0.211267605633802 	(obj:0)
_var931_                            0.164172535211268 	(obj:1)
_var932_                            0.118397887323944 	(obj:1)
_var934_                           0.0510563380281683 	(obj:2)
_var935_                            0.112235915492958 	(obj:0)
_var936_                            0.127200704225351 	(obj:0)
_var938_                            0.110915492957746 	(obj:0)
_var939_                           0.0611795774647894 	(obj:2)
_var944_                           0.0356514084507048 	(obj:0)
_var945_                          0.00880281690140822 	(obj:1)
_var947_                           0.0642605633802814 	(obj:0)
_var948_                          0.00308098591549444 	(obj:0)
_var949_                            0.138644366197184 	(obj:1)
_var950_                          0.00132042253521122 	(obj:1)
_var951_                            0.109154929577464 	(obj:0)
_var953_                            0.112235915492958 	(obj:0)
_var954_                             0.15669014084507 	(obj:0)
