results_rootrelaxation/bin012_060_046.srr.log
SCIP version 8.0.3.5 [precision: 8 byte] [memory: block] [mode: optimized] [LP solver: Soplex 6.0.1.3] [GitHash: 438792519e]
Copyright (c) 2002-2023 Zuse Institute Berlin (ZIB)

External libraries: 
  Readline 8.1         GNU library for command line editing (gnu.org/s/readline)
  Soplex 6.0.1.3       Linear Programming Solver developed at Zuse Institute Berlin (soplex.zib.de) [GitHash: 713be0fe]
  CppAD 20180000.0     Algorithmic Differentiation of C++ algorithms developed by B. Bell (github.com/coin-or/CppAD)
  ZLIB 1.2.11          General purpose compression library by J. Gailly and M. Adler (zlib.net)
  bliss 0.77           Computing Graph Automorphism Groups by T. Junttila and P. Kaski (www.tcs.hut.fi/Software/bliss/)

user parameter file <scip.set> not found - using default parameters

srr/relaxation = TRUE

read problem <instances/bin012_060_046.srr>
============

Original problem: 
original problem has 0 variables (0 bin, 0 int, 0 impl, 0 cont) and 77 constraints

presolving:
presolving (1 rounds: 1 fast, 1 medium, 1 exhaustive):
 0 deleted vars, 0 deleted constraints, 0 added constraints, 0 tightened bounds, 0 added holes, 0 changed sides, 0 changed coefficients
 0 implications, 0 cliques
presolved problem has 0 variables (0 bin, 0 int, 0 impl, 0 cont) and 77 constraints
     77 constraints of type <linear>
Presolving Time: 0.00

 time | node  | left  |LP iter|LP it/n|mem/heur|mdpt |vars |cons |rows |cuts |sepa|confs|strbr|  dualbound   | primalbound  |  gap   | compl. 
  0.0s|     1 |     0 |     1 |     - |   710k |   0 |   1 |  77 |  77 |   0 |  0 |   0 |   0 |      --      |      --      |    Inf | unknown
r 0.0s|     1 |     0 |   943 |     - |simplero|   0 | 693 |  77 |  77 |   0 |  0 |   0 |   0 |      --      | 2.096993e+01 |    Inf | unknown
r 0.0s|     1 |     0 |   980 |     - |simplero|   0 | 704 |  77 |  77 |   0 |  0 |   0 |   0 |      --      | 2.015940e+01 |    Inf | unknown
r 0.1s|     1 |     0 |  1056 |     - |simplero|   0 | 715 |  77 |  77 |   0 |  0 |   0 |   0 |      --      | 1.750178e+01 |    Inf | unknown
r 0.1s|     1 |     0 |  1134 |     - |simplero|   0 | 726 |  77 |  77 |   0 |  0 |   0 |   0 |      --      | 1.551246e+01 |    Inf | unknown
r 0.1s|     1 |     0 |  1224 |     - |simplero|   0 | 737 |  77 |  77 |   0 |  0 |   0 |   0 |      --      | 1.338072e+01 |    Inf | unknown
r 0.1s|     1 |     0 |  1288 |     - |simplero|   0 | 748 |  77 |  77 |   0 |  0 |   0 |   0 |      --      | 1.198948e+01 |    Inf | unknown
r 0.1s|     1 |     0 |  1323 |     - |simplero|   0 | 759 |  77 |  77 |   0 |  0 |   0 |   0 |      --      | 1.145080e+01 |    Inf | unknown
r 0.1s|     1 |     0 |  1366 |     - |simplero|   0 | 770 |  77 |  77 |   0 |  0 |   0 |   0 |      --      | 1.017355e+01 |    Inf | unknown
r 0.1s|     1 |     0 |  1400 |     - |simplero|   0 | 770 |  77 |  77 |   0 |  0 |   0 |   0 |      --      | 9.805312e+00 |    Inf | unknown
r 0.1s|     1 |     0 |  1409 |     - |simplero|   0 | 770 |  77 |  77 |   0 |  0 |   0 |   0 |      --      | 9.758423e+00 |    Inf | unknown
r 0.1s|     1 |     0 |  1410 |     - |simplero|   0 | 770 |  77 |  77 |   0 |  0 |   0 |   0 |      --      | 9.758174e+00 |    Inf | unknown
r 0.1s|     1 |     0 |  1462 |     - |simplero|   0 | 781 |  77 |  77 |   0 |  0 |   0 |   0 |      --      | 7.942486e+00 |    Inf | unknown
r 0.1s|     1 |     0 |  1477 |     - |simplero|   0 | 781 |  77 |  77 |   0 |  0 |   0 |   0 |      --      | 7.841635e+00 |    Inf | unknown
r 0.1s|     1 |     0 |  1480 |     - |simplero|   0 | 781 |  77 |  77 |   0 |  0 |   0 |   0 |      --      | 7.840487e+00 |    Inf | unknown
 time | node  | left  |LP iter|LP it/n|mem/heur|mdpt |vars |cons |rows |cuts |sepa|confs|strbr|  dualbound   | primalbound  |  gap   | compl. 
r 0.1s|     1 |     0 |  1529 |     - |simplero|   0 | 792 |  77 |  77 |   0 |  0 |   0 |   0 |      --      | 7.160548e+00 |    Inf | unknown
r 0.1s|     1 |     0 |  1549 |     - |simplero|   0 | 792 |  77 |  77 |   0 |  0 |   0 |   0 |      --      | 6.992806e+00 |    Inf | unknown
r 0.1s|     1 |     0 |  1562 |     - |simplero|   0 | 792 |  77 |  77 |   0 |  0 |   0 |   0 |      --      | 6.951583e+00 |    Inf | unknown
r 0.1s|     1 |     0 |  1612 |     - |simplero|   0 | 803 |  77 |  77 |   0 |  0 |   0 |   0 |      --      | 6.027914e+00 |    Inf | unknown
r 0.1s|     1 |     0 |  1628 |     - |simplero|   0 | 803 |  77 |  77 |   0 |  0 |   0 |   0 |      --      | 6.000196e+00 |    Inf | unknown
r 0.1s|     1 |     0 |  1631 |     - |simplero|   0 | 803 |  77 |  77 |   0 |  0 |   0 |   0 |      --      | 5.999178e+00 |    Inf | unknown
r 0.1s|     1 |     0 |  1659 |     - |simplero|   0 | 814 |  77 |  77 |   0 |  0 |   0 |   0 |      --      | 5.699011e+00 |    Inf | unknown
r 0.1s|     1 |     0 |  1675 |     - |simplero|   0 | 814 |  77 |  77 |   0 |  0 |   0 |   0 |      --      | 5.591277e+00 |    Inf | unknown
r 0.1s|     1 |     0 |  1679 |     - |simplero|   0 | 814 |  77 |  77 |   0 |  0 |   0 |   0 |      --      | 5.585564e+00 |    Inf | unknown
r 0.1s|     1 |     0 |  1721 |     - |simplero|   0 | 825 |  77 |  77 |   0 |  0 |   0 |   0 |      --      | 5.224923e+00 |    Inf | unknown
r 0.1s|     1 |     0 |  1732 |     - |simplero|   0 | 825 |  77 |  77 |   0 |  0 |   0 |   0 |      --      | 5.167951e+00 |    Inf | unknown
r 0.1s|     1 |     0 |  1733 |     - |simplero|   0 | 825 |  77 |  77 |   0 |  0 |   0 |   0 |      --      | 5.167943e+00 |    Inf | unknown
r 0.1s|     1 |     0 |  1763 |     - |simplero|   0 | 836 |  77 |  77 |   0 |  0 |   0 |   0 |      --      | 4.941149e+00 |    Inf | unknown
r 0.1s|     1 |     0 |  1779 |     - |simplero|   0 | 836 |  77 |  77 |   0 |  0 |   0 |   0 |      --      | 4.890057e+00 |    Inf | unknown
r 0.1s|     1 |     0 |  1780 |     - |simplero|   0 | 836 |  77 |  77 |   0 |  0 |   0 |   0 |      --      | 4.890048e+00 |    Inf | unknown
 time | node  | left  |LP iter|LP it/n|mem/heur|mdpt |vars |cons |rows |cuts |sepa|confs|strbr|  dualbound   | primalbound  |  gap   | compl. 
r 0.1s|     1 |     0 |  1832 |     - |simplero|   0 | 847 |  77 |  77 |   0 |  0 |   0 |   0 |      --      | 4.440203e+00 |    Inf | unknown
r 0.1s|     1 |     0 |  1844 |     - |simplero|   0 | 847 |  77 |  77 |   0 |  0 |   0 |   0 |      --      | 4.410108e+00 |    Inf | unknown
  0.1s|     1 |     0 |  1876 |     - |  4123k |   0 | 858 |  77 |  77 |   0 |  0 |   0 |   0 |      --      | 4.410108e+00 |    Inf | unknown
r 0.1s|     1 |     0 |  1876 |     - |simplero|   0 | 858 |  77 |  77 |   0 |  0 |   0 |   0 |      --      | 4.108356e+00 |    Inf | unknown
r 0.1s|     1 |     0 |  1909 |     - |simplero|   0 | 868 |  77 |  77 |   0 |  0 |   0 |   0 |      --      | 3.913608e+00 |    Inf | unknown
r 0.1s|     1 |     0 |  1912 |     - |simplero|   0 | 868 |  77 |  77 |   0 |  0 |   0 |   0 |      --      | 3.913528e+00 |    Inf | unknown
r 0.1s|     1 |     0 |  1913 |     - |simplero|   0 | 868 |  77 |  77 |   0 |  0 |   0 |   0 |      --      | 3.913367e+00 |    Inf | unknown
r 0.1s|     1 |     0 |  1947 |     - |simplero|   0 | 879 |  77 |  77 |   0 |  0 |   0 |   0 |      --      | 3.763942e+00 |    Inf | unknown
r 0.1s|     1 |     0 |  1949 |     - |simplero|   0 | 879 |  77 |  77 |   0 |  0 |   0 |   0 |      --      | 3.761311e+00 |    Inf | unknown
r 0.1s|     1 |     0 |  1978 |     - |simplero|   0 | 890 |  77 |  77 |   0 |  0 |   0 |   0 |      --      | 3.653198e+00 |    Inf | unknown
r 0.1s|     1 |     0 |  1998 |     - |simplero|   0 | 890 |  77 |  77 |   0 |  0 |   0 |   0 |      --      | 3.633277e+00 |    Inf | unknown
r 0.1s|     1 |     0 |  2004 |     - |simplero|   0 | 890 |  77 |  77 |   0 |  0 |   0 |   0 |      --      | 3.632350e+00 |    Inf | unknown
r 0.1s|     1 |     0 |  2029 |     - |simplero|   0 | 900 |  77 |  77 |   0 |  0 |   0 |   0 |      --      | 3.545032e+00 |    Inf | unknown
r 0.1s|     1 |     0 |  2039 |     - |simplero|   0 | 900 |  77 |  77 |   0 |  0 |   0 |   0 |      --      | 3.543978e+00 |    Inf | unknown
r 0.1s|     1 |     0 |  2060 |     - |simplero|   0 | 911 |  77 |  77 |   0 |  0 |   0 |   0 |      --      | 3.451815e+00 |    Inf | unknown
 time | node  | left  |LP iter|LP it/n|mem/heur|mdpt |vars |cons |rows |cuts |sepa|confs|strbr|  dualbound   | primalbound  |  gap   | compl. 
r 0.1s|     1 |     0 |  2070 |     - |simplero|   0 | 911 |  77 |  77 |   0 |  0 |   0 |   0 |      --      | 3.446761e+00 |    Inf | unknown
r 0.1s|     1 |     0 |  2101 |     - |simplero|   0 | 922 |  77 |  77 |   0 |  0 |   0 |   0 |      --      | 3.384081e+00 |    Inf | unknown
r 0.1s|     1 |     0 |  2113 |     - |simplero|   0 | 922 |  77 |  77 |   0 |  0 |   0 |   0 |      --      | 3.378171e+00 |    Inf | unknown
r 0.1s|     1 |     0 |  2114 |     - |simplero|   0 | 922 |  77 |  77 |   0 |  0 |   0 |   0 |      --      | 3.378150e+00 |    Inf | unknown
r 0.1s|     1 |     0 |  2129 |     - |simplero|   0 | 930 |  77 |  77 |   0 |  0 |   0 |   0 |      --      | 3.322196e+00 |    Inf | unknown
r 0.1s|     1 |     0 |  2145 |     - |simplero|   0 | 930 |  77 |  77 |   0 |  0 |   0 |   0 |      --      | 3.255228e+00 |    Inf | unknown
r 0.1s|     1 |     0 |  2169 |     - |simplero|   0 | 936 |  77 |  77 |   0 |  0 |   0 |   0 |      --      | 3.214286e+00 |    Inf | unknown
r 0.1s|     1 |     0 |  2186 |     - |simplero|   0 | 944 |  77 |  77 |   0 |  0 |   0 |   0 |      --      | 3.202958e+00 |    Inf | unknown
r 0.1s|     1 |     0 |  2199 |     - |simplero|   0 | 949 |  77 |  77 |   0 |  0 |   0 |   0 |      --      | 3.195029e+00 |    Inf | unknown
r 0.1s|     1 |     0 |  2209 |     - |simplero|   0 | 952 |  77 |  77 |   0 |  0 |   0 |   0 |      --      | 3.183153e+00 |    Inf | unknown
r 0.1s|     1 |     0 |  2216 |     - |simplero|   0 | 954 |  77 |  77 |   0 |  0 |   0 |   0 |      --      | 3.174334e+00 |    Inf | unknown
r 0.1s|     1 |     0 |  2224 |     - |simplero|   0 | 955 |  77 |  77 |   0 |  0 |   0 |   0 |      --      | 3.169894e+00 |    Inf | unknown
  0.1s|     1 |     0 |  2224 |     - |  4879k |   0 | 955 |  77 |  77 |   0 |  0 |   0 |   0 | 3.169894e+00 | 3.169894e+00 |   0.00%| unknown
  0.1s|     1 |     0 |  2224 |     - |  4879k |   0 | 955 |  77 |  77 |   0 |  0 |   0 |   0 | 3.169894e+00 | 3.169894e+00 |   0.00%| unknown

SCIP Status        : problem is solved [optimal solution found]
Solving Time (sec) : 0.12
Solving Nodes      : 1
Primal Bound       : +3.16989436619718e+00 (55 solutions)
Dual Bound         : +3.16989436619718e+00
Gap                : 0.00 %

written transformed problem to file <results_rootrelaxation/bin012_060_046.srr.lp>
written transformed problem to file <results_rootrelaxation/bin012_060_046.srr.cip>


SCIP version 8.0.3.5 [precision: 8 byte] [memory: block] [mode: optimized] [LP solver: Soplex 6.0.1.3] [GitHash: 438792519e]
Copyright (c) 2002-2023 Zuse Institute Berlin (ZIB)

External libraries: 
  Readline 8.1         GNU library for command line editing (gnu.org/s/readline)
  Soplex 6.0.1.3       Linear Programming Solver developed at Zuse Institute Berlin (soplex.zib.de) [GitHash: 713be0fe]
  CppAD 20180000.0     Algorithmic Differentiation of C++ algorithms developed by B. Bell (github.com/coin-or/CppAD)
  ZLIB 1.2.11          General purpose compression library by J. Gailly and M. Adler (zlib.net)
  bliss 0.77           Computing Graph Automorphism Groups by T. Junttila and P. Kaski (www.tcs.hut.fi/Software/bliss/)

user parameter file <scip.set> not found - using default parameters

srr/relaxation = TRUE

read problem <instances/bin012_060_046.srr>
============

Original problem: 
original problem has 0 variables (0 bin, 0 int, 0 impl, 0 cont) and 77 constraints

presolving:
presolving (1 rounds: 1 fast, 1 medium, 1 exhaustive):
 0 deleted vars, 0 deleted constraints, 0 added constraints, 0 tightened bounds, 0 added holes, 0 changed sides, 0 changed coefficients
 0 implications, 0 cliques
presolved problem has 0 variables (0 bin, 0 int, 0 impl, 0 cont) and 77 constraints
     77 constraints of type <linear>
Presolving Time: 0.00

 time | node  | left  |LP iter|LP it/n|mem/heur|mdpt |vars |cons |rows |cuts |sepa|confs|strbr|  dualbound   | primalbound  |  gap   | compl. 
  0.0s|     1 |     0 |     1 |     - |   710k |   0 |   1 |  77 |  77 |   0 |  0 |   0 |   0 |      --      |      --      |    Inf | unknown
r 0.0s|     1 |     0 |   943 |     - |simplero|   0 | 693 |  77 |  77 |   0 |  0 |   0 |   0 |      --      | 2.096993e+01 |    Inf | unknown
r 0.0s|     1 |     0 |   980 |     - |simplero|   0 | 704 |  77 |  77 |   0 |  0 |   0 |   0 |      --      | 2.015940e+01 |    Inf | unknown
r 0.0s|     1 |     0 |  1056 |     - |simplero|   0 | 715 |  77 |  77 |   0 |  0 |   0 |   0 |      --      | 1.750178e+01 |    Inf | unknown
r 0.1s|     1 |     0 |  1134 |     - |simplero|   0 | 726 |  77 |  77 |   0 |  0 |   0 |   0 |      --      | 1.551246e+01 |    Inf | unknown
r 0.1s|     1 |     0 |  1224 |     - |simplero|   0 | 737 |  77 |  77 |   0 |  0 |   0 |   0 |      --      | 1.338072e+01 |    Inf | unknown
r 0.1s|     1 |     0 |  1288 |     - |simplero|   0 | 748 |  77 |  77 |   0 |  0 |   0 |   0 |      --      | 1.198948e+01 |    Inf | unknown
r 0.1s|     1 |     0 |  1323 |     - |simplero|   0 | 759 |  77 |  77 |   0 |  0 |   0 |   0 |      --      | 1.145080e+01 |    Inf | unknown
r 0.1s|     1 |     0 |  1366 |     - |simplero|   0 | 770 |  77 |  77 |   0 |  0 |   0 |   0 |      --      | 1.017355e+01 |    Inf | unknown
r 0.1s|     1 |     0 |  1400 |     - |simplero|   0 | 770 |  77 |  77 |   0 |  0 |   0 |   0 |      --      | 9.805312e+00 |    Inf | unknown
r 0.1s|     1 |     0 |  1409 |     - |simplero|   0 | 770 |  77 |  77 |   0 |  0 |   0 |   0 |      --      | 9.758423e+00 |    Inf | unknown
r 0.1s|     1 |     0 |  1410 |     - |simplero|   0 | 770 |  77 |  77 |   0 |  0 |   0 |   0 |      --      | 9.758174e+00 |    Inf | unknown
r 0.1s|     1 |     0 |  1462 |     - |simplero|   0 | 781 |  77 |  77 |   0 |  0 |   0 |   0 |      --      | 7.942486e+00 |    Inf | unknown
r 0.1s|     1 |     0 |  1477 |     - |simplero|   0 | 781 |  77 |  77 |   0 |  0 |   0 |   0 |      --      | 7.841635e+00 |    Inf | unknown
r 0.1s|     1 |     0 |  1480 |     - |simplero|   0 | 781 |  77 |  77 |   0 |  0 |   0 |   0 |      --      | 7.840487e+00 |    Inf | unknown
 time | node  | left  |LP iter|LP it/n|mem/heur|mdpt |vars |cons |rows |cuts |sepa|confs|strbr|  dualbound   | primalbound  |  gap   | compl. 
r 0.1s|     1 |     0 |  1529 |     - |simplero|   0 | 792 |  77 |  77 |   0 |  0 |   0 |   0 |      --      | 7.160548e+00 |    Inf | unknown
r 0.1s|     1 |     0 |  1549 |     - |simplero|   0 | 792 |  77 |  77 |   0 |  0 |   0 |   0 |      --      | 6.992806e+00 |    Inf | unknown
r 0.1s|     1 |     0 |  1562 |     - |simplero|   0 | 792 |  77 |  77 |   0 |  0 |   0 |   0 |      --      | 6.951583e+00 |    Inf | unknown
r 0.1s|     1 |     0 |  1612 |     - |simplero|   0 | 803 |  77 |  77 |   0 |  0 |   0 |   0 |      --      | 6.027914e+00 |    Inf | unknown
r 0.1s|     1 |     0 |  1628 |     - |simplero|   0 | 803 |  77 |  77 |   0 |  0 |   0 |   0 |      --      | 6.000196e+00 |    Inf | unknown
r 0.1s|     1 |     0 |  1631 |     - |simplero|   0 | 803 |  77 |  77 |   0 |  0 |   0 |   0 |      --      | 5.999178e+00 |    Inf | unknown
r 0.1s|     1 |     0 |  1659 |     - |simplero|   0 | 814 |  77 |  77 |   0 |  0 |   0 |   0 |      --      | 5.699011e+00 |    Inf | unknown
r 0.1s|     1 |     0 |  1675 |     - |simplero|   0 | 814 |  77 |  77 |   0 |  0 |   0 |   0 |      --      | 5.591277e+00 |    Inf | unknown
r 0.1s|     1 |     0 |  1679 |     - |simplero|   0 | 814 |  77 |  77 |   0 |  0 |   0 |   0 |      --      | 5.585564e+00 |    Inf | unknown
r 0.1s|     1 |     0 |  1721 |     - |simplero|   0 | 825 |  77 |  77 |   0 |  0 |   0 |   0 |      --      | 5.224923e+00 |    Inf | unknown
r 0.1s|     1 |     0 |  1732 |     - |simplero|   0 | 825 |  77 |  77 |   0 |  0 |   0 |   0 |      --      | 5.167951e+00 |    Inf | unknown
r 0.1s|     1 |     0 |  1733 |     - |simplero|   0 | 825 |  77 |  77 |   0 |  0 |   0 |   0 |      --      | 5.167943e+00 |    Inf | unknown
r 0.1s|     1 |     0 |  1763 |     - |simplero|   0 | 836 |  77 |  77 |   0 |  0 |   0 |   0 |      --      | 4.941149e+00 |    Inf | unknown
r 0.1s|     1 |     0 |  1779 |     - |simplero|   0 | 836 |  77 |  77 |   0 |  0 |   0 |   0 |      --      | 4.890057e+00 |    Inf | unknown
r 0.1s|     1 |     0 |  1780 |     - |simplero|   0 | 836 |  77 |  77 |   0 |  0 |   0 |   0 |      --      | 4.890048e+00 |    Inf | unknown
 time | node  | left  |LP iter|LP it/n|mem/heur|mdpt |vars |cons |rows |cuts |sepa|confs|strbr|  dualbound   | primalbound  |  gap   | compl. 
r 0.1s|     1 |     0 |  1832 |     - |simplero|   0 | 847 |  77 |  77 |   0 |  0 |   0 |   0 |      --      | 4.440203e+00 |    Inf | unknown
r 0.1s|     1 |     0 |  1844 |     - |simplero|   0 | 847 |  77 |  77 |   0 |  0 |   0 |   0 |      --      | 4.410108e+00 |    Inf | unknown
  0.1s|     1 |     0 |  1876 |     - |  4123k |   0 | 858 |  77 |  77 |   0 |  0 |   0 |   0 |      --      | 4.410108e+00 |    Inf | unknown
r 0.1s|     1 |     0 |  1876 |     - |simplero|   0 | 858 |  77 |  77 |   0 |  0 |   0 |   0 |      --      | 4.108356e+00 |    Inf | unknown
r 0.1s|     1 |     0 |  1909 |     - |simplero|   0 | 868 |  77 |  77 |   0 |  0 |   0 |   0 |      --      | 3.913608e+00 |    Inf | unknown
r 0.1s|     1 |     0 |  1912 |     - |simplero|   0 | 868 |  77 |  77 |   0 |  0 |   0 |   0 |      --      | 3.913528e+00 |    Inf | unknown
r 0.1s|     1 |     0 |  1913 |     - |simplero|   0 | 868 |  77 |  77 |   0 |  0 |   0 |   0 |      --      | 3.913367e+00 |    Inf | unknown
r 0.1s|     1 |     0 |  1947 |     - |simplero|   0 | 879 |  77 |  77 |   0 |  0 |   0 |   0 |      --      | 3.763942e+00 |    Inf | unknown
r 0.1s|     1 |     0 |  1949 |     - |simplero|   0 | 879 |  77 |  77 |   0 |  0 |   0 |   0 |      --      | 3.761311e+00 |    Inf | unknown
r 0.1s|     1 |     0 |  1978 |     - |simplero|   0 | 890 |  77 |  77 |   0 |  0 |   0 |   0 |      --      | 3.653198e+00 |    Inf | unknown
r 0.1s|     1 |     0 |  1998 |     - |simplero|   0 | 890 |  77 |  77 |   0 |  0 |   0 |   0 |      --      | 3.633277e+00 |    Inf | unknown
r 0.1s|     1 |     0 |  2004 |     - |simplero|   0 | 890 |  77 |  77 |   0 |  0 |   0 |   0 |      --      | 3.632350e+00 |    Inf | unknown
r 0.1s|     1 |     0 |  2029 |     - |simplero|   0 | 900 |  77 |  77 |   0 |  0 |   0 |   0 |      --      | 3.545032e+00 |    Inf | unknown
r 0.1s|     1 |     0 |  2039 |     - |simplero|   0 | 900 |  77 |  77 |   0 |  0 |   0 |   0 |      --      | 3.543978e+00 |    Inf | unknown
r 0.1s|     1 |     0 |  2060 |     - |simplero|   0 | 911 |  77 |  77 |   0 |  0 |   0 |   0 |      --      | 3.451815e+00 |    Inf | unknown
 time | node  | left  |LP iter|LP it/n|mem/heur|mdpt |vars |cons |rows |cuts |sepa|confs|strbr|  dualbound   | primalbound  |  gap   | compl. 
r 0.1s|     1 |     0 |  2070 |     - |simplero|   0 | 911 |  77 |  77 |   0 |  0 |   0 |   0 |      --      | 3.446761e+00 |    Inf | unknown
r 0.1s|     1 |     0 |  2101 |     - |simplero|   0 | 922 |  77 |  77 |   0 |  0 |   0 |   0 |      --      | 3.384081e+00 |    Inf | unknown
r 0.1s|     1 |     0 |  2113 |     - |simplero|   0 | 922 |  77 |  77 |   0 |  0 |   0 |   0 |      --      | 3.378171e+00 |    Inf | unknown
r 0.1s|     1 |     0 |  2114 |     - |simplero|   0 | 922 |  77 |  77 |   0 |  0 |   0 |   0 |      --      | 3.378150e+00 |    Inf | unknown
r 0.1s|     1 |     0 |  2129 |     - |simplero|   0 | 930 |  77 |  77 |   0 |  0 |   0 |   0 |      --      | 3.322196e+00 |    Inf | unknown
r 0.1s|     1 |     0 |  2145 |     - |simplero|   0 | 930 |  77 |  77 |   0 |  0 |   0 |   0 |      --      | 3.255228e+00 |    Inf | unknown
r 0.1s|     1 |     0 |  2169 |     - |simplero|   0 | 936 |  77 |  77 |   0 |  0 |   0 |   0 |      --      | 3.214286e+00 |    Inf | unknown
r 0.1s|     1 |     0 |  2186 |     - |simplero|   0 | 944 |  77 |  77 |   0 |  0 |   0 |   0 |      --      | 3.202958e+00 |    Inf | unknown
r 0.1s|     1 |     0 |  2199 |     - |simplero|   0 | 949 |  77 |  77 |   0 |  0 |   0 |   0 |      --      | 3.195029e+00 |    Inf | unknown
r 0.1s|     1 |     0 |  2209 |     - |simplero|   0 | 952 |  77 |  77 |   0 |  0 |   0 |   0 |      --      | 3.183153e+00 |    Inf | unknown
r 0.1s|     1 |     0 |  2216 |     - |simplero|   0 | 954 |  77 |  77 |   0 |  0 |   0 |   0 |      --      | 3.174334e+00 |    Inf | unknown
r 0.1s|     1 |     0 |  2224 |     - |simplero|   0 | 955 |  77 |  77 |   0 |  0 |   0 |   0 |      --      | 3.169894e+00 |    Inf | unknown
  0.1s|     1 |     0 |  2224 |     - |  4879k |   0 | 955 |  77 |  77 |   0 |  0 |   0 |   0 | 3.169894e+00 | 3.169894e+00 |   0.00%| unknown
  0.1s|     1 |     0 |  2224 |     - |  4879k |   0 | 955 |  77 |  77 |   0 |  0 |   0 |   0 | 3.169894e+00 | 3.169894e+00 |   0.00%| unknown

SCIP Status        : problem is solved [optimal solution found]
Solving Time (sec) : 0.11
Solving Nodes      : 1
Primal Bound       : +3.16989436619718e+00 (55 solutions)
Dual Bound         : +3.16989436619718e+00
Gap                : 0.00 %

written transformed problem to file <results_rootrelaxation/bin012_060_046.srr.lp>
written transformed problem to file <results_rootrelaxation/bin012_060_046.srr.cip>

written solution information to file <results_rootrelaxation/bin012_060_046.srr.sol>



